(declare-fun i27.i.i_1_112 () (_ BitVec 64))
(declare-fun cond17.i.i_1_114 () (_ BitVec 64))
(declare-fun i26.i.i_1_111 () (_ BitVec 64))
(declare-fun cmp12.i.i_1_113 () (_ BitVec 1))
(declare-fun dst_reg_1_80 () (_ BitVec 64))
(declare-fun dst_reg_1_51 () (_ BitVec 64))
(declare-fun i25.i.i_1_108 () (_ BitVec 64))
(declare-fun cond.i250.i_1_110 () (_ BitVec 64))
(declare-fun i.i245.i_1_102 () (_ BitVec 64))
(declare-fun cmp4.i.i_1_109 () (_ BitVec 1))
(declare-fun dst_reg_1_79 () (_ BitVec 64))
(declare-fun retval.0.i44.i_1_35 () (_ BitVec 1))
(declare-fun retval.0.i49.i_1_42 () (_ BitVec 1))
(declare-fun cmp63.i_1_66 () (_ BitVec 1))
(declare-fun cmp.i246.i_1_104 () (_ BitVec 1))
(declare-fun cmp1.i248.i_1_107 () (_ BitVec 1))
(declare-fun src_reg1.sroa.21.0.copyload_1_26 () (_ BitVec 64))
(declare-fun i35.i_1_70 () (_ BitVec 64))
(declare-fun sub72.i_1_71 () (_ BitVec 64))
(declare-fun dst_reg_1_8 () (_ BitVec 64))
(declare-fun src_reg1.sroa.24.0.copyload_1_27 () (_ BitVec 64))
(declare-fun i34.i_1_65 () (_ BitVec 64))
(declare-fun sub70.i_1_69 () (_ BitVec 64))
(declare-fun i28.i.i_1_115 () (_ BitVec 64))
(declare-fun cond36.i.i_1_120 () (_ BitVec 64))
(declare-fun i24.i.i_1_105 () (_ BitVec 64))
(declare-fun cmp31.i.i_1_119 () (_ BitVec 1))
(declare-fun cmp21.i.i_1_117 () (_ BitVec 1))
(declare-fun dst_reg_1_54 () (_ BitVec 32))
(declare-fun dst_reg_1_9 () (_ BitVec 32))
(declare-fun dst_reg_1_53 () (_ BitVec 64))
(declare-fun dst_reg_1_52 () (_ BitVec 64))
(declare-fun dst_reg_1_7 () (_ BitVec 64))
(declare-fun sub.i45.i_1_37 () (_ BitVec 64))
(declare-fun dst_reg_1_50 () (_ BitVec 64))
(declare-fun sub.i.i_1_30 () (_ BitVec 64))
(declare-fun dst_reg_1_49 () (_ BitVec 64))
(declare-fun dst_reg_1_4 () (_ BitVec 64))
(declare-fun dst_reg_1_48 () (_ BitVec 64))
(declare-fun dst_reg_1_3 () (_ BitVec 64))
(declare-fun dst_reg_1_47 () (_ BitVec 32))
(declare-fun dst_reg_1_2 () (_ BitVec 32))
(declare-fun dst_reg_1_46 () (_ BitVec 32))
(declare-fun dst_reg_1_1 () (_ BitVec 32))
(declare-fun dst_reg_1_45 () (_ BitVec 32))
(declare-fun src_reg_1_64 () (_ BitVec 32))
(declare-fun src_reg_1_19 () (_ BitVec 32))
(declare-fun src_reg_1_63 () (_ BitVec 64))
(declare-fun src_reg_1_18 () (_ BitVec 64))
(declare-fun src_reg_1_62 () (_ BitVec 64))
(declare-fun src_reg_1_17 () (_ BitVec 64))
(declare-fun src_reg_1_61 () (_ BitVec 64))
(declare-fun src_reg_1_16 () (_ BitVec 64))
(declare-fun src_reg_1_60 () (_ BitVec 64))
(declare-fun src_reg_1_15 () (_ BitVec 64))
(declare-fun src_reg_1_59 () (_ BitVec 64))
(declare-fun src_reg_1_14 () (_ BitVec 64))
(declare-fun src_reg_1_58 () (_ BitVec 64))
(declare-fun src_reg_1_13 () (_ BitVec 64))
(declare-fun src_reg_1_57 () (_ BitVec 32))
(declare-fun src_reg_1_12 () (_ BitVec 32))
(declare-fun src_reg_1_56 () (_ BitVec 32))
(declare-fun src_reg_1_11 () (_ BitVec 32))
(declare-fun src_reg_1_55 () (_ BitVec 32))
(declare-fun conv.i.i.i.i_1_193 () (_ BitVec 32))
(declare-fun phi.bo_1_195 () (_ BitVec 32))
(declare-fun i.i.i.i.i.i.neg_1_192 () (_ BitVec 32))
(declare-fun num.4.i.i.i.i.i_1_189 () (_ BitVec 32))
(declare-fun word.addr.4.lobit.i.i.i.i.i.neg_1_191 () (_ BitVec 64))
(declare-fun word.addr.4.i.i.i.i.i_1_188 () (_ BitVec 64))
(declare-fun num.3.i.i.i.i.i_1_181 () (_ BitVec 32))
(declare-fun sub22.i.i.i.i.i_1_185 () (_ BitVec 32))
(declare-fun tobool20.not.i.i.i.i.i_1_183 () (_ BitVec 1))
(declare-fun word.addr.3.i.i.i.i.i_1_180 () (_ BitVec 64))
(declare-fun shl23.i.i.i.i.i_1_187 () (_ BitVec 64))
(declare-fun num.2.i.i.i.i.i_1_173 () (_ BitVec 32))
(declare-fun sub16.i.i.i.i.i_1_177 () (_ BitVec 32))
(declare-fun tobool14.not.i.i.i.i.i_1_175 () (_ BitVec 1))
(declare-fun word.addr.2.i.i.i.i.i_1_172 () (_ BitVec 64))
(declare-fun shl17.i.i.i.i.i_1_179 () (_ BitVec 64))
(declare-fun num.1.i.i.i.i.i_1_165 () (_ BitVec 32))
(declare-fun sub10.i.i.i.i.i_1_169 () (_ BitVec 32))
(declare-fun tobool8.not.i.i.i.i.i_1_167 () (_ BitVec 1))
(declare-fun word.addr.1.i.i.i.i.i_1_164 () (_ BitVec 64))
(declare-fun shl11.i.i.i.i.i_1_171 () (_ BitVec 64))
(declare-fun spec.select17.i.i.i.i.i_1_157 () (_ BitVec 32))
(declare-fun sub4.i.i.i.i.i_1_161 () (_ BitVec 32))
(declare-fun tobool2.not.i.i.i.i.i_1_159 () (_ BitVec 1))
(declare-fun spec.select.i.i.i.i.i_1_154 () (_ BitVec 64))
(declare-fun shl5.i.i.i.i.i_1_163 () (_ BitVec 64))
(declare-fun tobool.not.i.i.i.i.i_1_151 () (_ BitVec 1))
(declare-fun xor.i.i.i_1_147 () (_ BitVec 64))
(declare-fun shl.i.i.i.i.i_1_153 () (_ BitVec 64))
(declare-fun cmp40.i.i_1_122 () (_ BitVec 1))
(declare-fun cmp.i.i.i.i_1_149 () (_ BitVec 1))
(declare-fun cmp2.i48.i_1_41 () (_ BitVec 1))
(declare-fun cmp1.i47.i_1_40 () (_ BitVec 1))
(declare-fun cmp.i46.i_1_39 () (_ BitVec 1))
(declare-fun i33.i_1_36 () (_ BitVec 64))
(declare-fun src_reg1.sroa.15.0.copyload_1_24 () (_ BitVec 64))
(declare-fun dst_reg_1_6 () (_ BitVec 64))
(declare-fun i29.i.i_1_118 () (_ BitVec 64))
(declare-fun cond53.i.i_1_124 () (_ BitVec 64))
(declare-fun cmp48.i.i_1_123 () (_ BitVec 1))
(declare-fun dst_reg_1_81 () (_ BitVec 32))
(declare-fun dst_reg_1_78 () (_ BitVec 64))
(declare-fun dst_reg_1_77 () (_ BitVec 64))
(declare-fun dst_reg_1_76 () (_ BitVec 64))
(declare-fun dst_reg_1_75 () (_ BitVec 64))
(declare-fun dst_reg_1_74 () (_ BitVec 32))
(declare-fun dst_reg_1_73 () (_ BitVec 32))
(declare-fun dst_reg_1_72 () (_ BitVec 32))
(declare-fun src_reg_1_91 () (_ BitVec 32))
(declare-fun src_reg_1_90 () (_ BitVec 64))
(declare-fun src_reg_1_89 () (_ BitVec 64))
(declare-fun src_reg_1_88 () (_ BitVec 64))
(declare-fun src_reg_1_87 () (_ BitVec 64))
(declare-fun src_reg_1_86 () (_ BitVec 64))
(declare-fun src_reg_1_85 () (_ BitVec 64))
(declare-fun src_reg_1_84 () (_ BitVec 32))
(declare-fun src_reg_1_83 () (_ BitVec 32))
(declare-fun src_reg_1_82 () (_ BitVec 32))
(declare-fun neg.i54.i_1_100 () (_ BitVec 64))
(declare-fun sub.i50.i_1_93 () (_ BitVec 64))
(declare-fun and.i55.i_1_101 () (_ BitVec 64))
(declare-fun or6.i.i_1_98 () (_ BitVec 64))
(declare-fun xor.i52.i_1_96 () (_ BitVec 64))
(declare-fun or.i53.i_1_97 () (_ BitVec 64))
(declare-fun src_reg1.sroa.11.0.copyload_1_23 () (_ BitVec 64))
(declare-fun i20.i_1_28 () (_ BitVec 64))
(declare-fun sub3.i.i_1_95 () (_ BitVec 64))
(declare-fun add.i51.i_1_94 () (_ BitVec 64))
(declare-fun src_reg1.sroa.3.0.copyload_1_22 () (_ BitVec 64))
(declare-fun i36.i_1_92 () (_ BitVec 64))
(declare-fun src_reg_1_234 () (_ BitVec 32))
(declare-fun src_reg_1_144 () (_ BitVec 32))
(declare-fun src_reg_1_233 () (_ BitVec 64))
(declare-fun src_reg_1_143 () (_ BitVec 64))
(declare-fun src_reg_1_232 () (_ BitVec 64))
(declare-fun src_reg_1_142 () (_ BitVec 64))
(declare-fun src_reg_1_231 () (_ BitVec 64))
(declare-fun src_reg_1_141 () (_ BitVec 64))
(declare-fun src_reg_1_230 () (_ BitVec 64))
(declare-fun src_reg_1_140 () (_ BitVec 64))
(declare-fun src_reg_1_229 () (_ BitVec 64))
(declare-fun src_reg_1_139 () (_ BitVec 64))
(declare-fun src_reg_1_228 () (_ BitVec 64))
(declare-fun src_reg_1_138 () (_ BitVec 64))
(declare-fun src_reg_1_227 () (_ BitVec 32))
(declare-fun src_reg_1_137 () (_ BitVec 32))
(declare-fun src_reg_1_226 () (_ BitVec 32))
(declare-fun src_reg_1_136 () (_ BitVec 32))
(declare-fun src_reg_1_225 () (_ BitVec 32))
(declare-fun src_reg_1_135 () (_ BitVec 32))
(declare-fun dst_reg_1_224 () (_ BitVec 32))
(declare-fun dst_reg_1_134 () (_ BitVec 32))
(declare-fun dst_reg_1_223 () (_ BitVec 64))
(declare-fun dst_reg_1_133 () (_ BitVec 64))
(declare-fun dst_reg_1_222 () (_ BitVec 64))
(declare-fun dst_reg_1_132 () (_ BitVec 64))
(declare-fun dst_reg_1_221 () (_ BitVec 64))
(declare-fun dst_reg_1_131 () (_ BitVec 64))
(declare-fun dst_reg_1_220 () (_ BitVec 64))
(declare-fun dst_reg_1_130 () (_ BitVec 64))
(declare-fun dst_reg_1_219 () (_ BitVec 64))
(declare-fun and.i1.i260.i_1_210 () (_ BitVec 64))
(declare-fun dst_reg_1_218 () (_ BitVec 64))
(declare-fun and4.i.i.i_1_213 () (_ BitVec 64))
(declare-fun dst_reg_1_217 () (_ BitVec 32))
(declare-fun dst_reg_1_127 () (_ BitVec 32))
(declare-fun dst_reg_1_216 () (_ BitVec 32))
(declare-fun dst_reg_1_126 () (_ BitVec 32))
(declare-fun dst_reg_1_215 () (_ BitVec 32))
(declare-fun dst_reg_1_125 () (_ BitVec 32))
(declare-fun retval.0.i.i.i.i_1_196 () (_ BitVec 32))
(declare-fun neg.i.i.i_1_212 () (_ BitVec 64))
(declare-fun or.i.i259.i_1_209 () (_ BitVec 64))
(declare-fun retval.sroa.3.0.i.i.i_1_208 () (_ BitVec 64))
(declare-fun retval.sroa.0.0.i.i.i_1_206 () (_ BitVec 64))
(declare-fun sub.i.i.i_1_203 () (_ BitVec 64))
(declare-fun cmp.i.i.i_1_198 () (_ BitVec 1))
(declare-fun and.i.i256.i_1_204 () (_ BitVec 64))
(declare-fun i.i253.i_1_145 () (_ BitVec 64))
(declare-fun notmask.i.i.i_1_201 () (_ BitVec 64))
(declare-fun sh_prom.i.i.i_1_199 () (_ BitVec 64))
(declare-fun cmp2.i43.i_1_34 () (_ BitVec 1))
(declare-fun cmp1.i42.i_1_33 () (_ BitVec 1))
(declare-fun cmp.i41.i_1_32 () (_ BitVec 1))
(declare-fun i32.i_1_29 () (_ BitVec 64))
(declare-fun src_reg1.sroa.18.0.copyload_1_25 () (_ BitVec 64))
(declare-fun dst_reg_1_5 () (_ BitVec 64))
(declare-fun src_reg_1_10 () (_ BitVec 32))
(declare-fun dst_reg_1_0 () (_ BitVec 32))
(declare-fun dst_reg_1_129 () (_ BitVec 64))
(declare-fun dst_reg_1_128 () (_ BitVec 64))
(declare-fun i5.i255.i_1_146 () (_ BitVec 64))
(assert (let ((a!1 (or (and (= retval.0.i49.i_1_42 #b1) (= retval.0.i44.i_1_35 #b0))
               (= retval.0.i44.i_1_35 #b1)))
      (a!16 (=> (= retval.0.i44.i_1_35 #b0)
                (and (= dst_reg_1_6 i33.i_1_36)
                     (= sub.i45.i_1_37
                        (bvsub i33.i_1_36 src_reg1.sroa.15.0.copyload_1_24))
                     (ite (bvslt src_reg1.sroa.15.0.copyload_1_24
                                 #x0000000000000000)
                          (= cmp.i46.i_1_39 #b1)
                          (= cmp.i46.i_1_39 #b0))
                     (ite (bvslt sub.i45.i_1_37 i33.i_1_36)
                          (= cmp1.i47.i_1_40 #b1)
                          (= cmp1.i47.i_1_40 #b0))
                     (ite (bvsgt sub.i45.i_1_37 i33.i_1_36)
                          (= cmp2.i48.i_1_41 #b1)
                          (= cmp2.i48.i_1_41 #b0))
                     (ite (= cmp.i46.i_1_39 #b1)
                          (= retval.0.i49.i_1_42 cmp1.i47.i_1_40)
                          (= retval.0.i49.i_1_42 cmp2.i48.i_1_41))))))
(let ((a!2 (and (= cmp63.i_1_66 #b0)
                (or (and (= retval.0.i49.i_1_42 #b0)
                         (= retval.0.i44.i_1_35 #b0))
                    a!1)))
      (a!3 (and (= cmp63.i_1_66 #b1)
                (or (and (= retval.0.i49.i_1_42 #b0)
                         (= retval.0.i44.i_1_35 #b0))
                    a!1)))
      (a!18 (and (= dst_reg_1_7 i34.i_1_65)
                 (ite (bvult i34.i_1_65 src_reg1.sroa.24.0.copyload_1_27)
                      (= cmp63.i_1_66 #b1)
                      (= cmp63.i_1_66 #b0))
                 (=> a!1
                     (and (= #x00000001 src_reg_1_55)
                          (= src_reg_1_11 src_reg_1_56)
                          (= src_reg_1_12 src_reg_1_57)
                          (= src_reg_1_13 src_reg_1_58)
                          (= src_reg_1_14 src_reg_1_59)
                          (= src_reg_1_15 src_reg_1_60)
                          (= src_reg_1_16 src_reg_1_61)
                          (= src_reg_1_17 src_reg_1_62)
                          (= src_reg_1_18 src_reg_1_63)
                          (= src_reg_1_19 src_reg_1_64)
                          (= #x00000001 dst_reg_1_45)
                          (= dst_reg_1_1 dst_reg_1_46)
                          (= dst_reg_1_2 dst_reg_1_47)
                          (= dst_reg_1_3 dst_reg_1_48)
                          (= dst_reg_1_4 dst_reg_1_49)
                          (= #x8000000000000000 dst_reg_1_50)
                          (= #x7fffffffffffffff dst_reg_1_51)
                          (= dst_reg_1_7 dst_reg_1_52)
                          (= dst_reg_1_8 dst_reg_1_53)
                          (= dst_reg_1_9 dst_reg_1_54)))
                 (=> (and (= retval.0.i49.i_1_42 #b0)
                          (= retval.0.i44.i_1_35 #b0))
                     (and (= #x00000001 src_reg_1_55)
                          (= src_reg_1_11 src_reg_1_56)
                          (= src_reg_1_12 src_reg_1_57)
                          (= src_reg_1_13 src_reg_1_58)
                          (= src_reg_1_14 src_reg_1_59)
                          (= src_reg_1_15 src_reg_1_60)
                          (= src_reg_1_16 src_reg_1_61)
                          (= src_reg_1_17 src_reg_1_62)
                          (= src_reg_1_18 src_reg_1_63)
                          (= src_reg_1_19 src_reg_1_64)
                          (= #x00000001 dst_reg_1_45)
                          (= dst_reg_1_1 dst_reg_1_46)
                          (= dst_reg_1_2 dst_reg_1_47)
                          (= dst_reg_1_3 dst_reg_1_48)
                          (= dst_reg_1_4 dst_reg_1_49)
                          (= sub.i.i_1_30 dst_reg_1_50)
                          (= sub.i45.i_1_37 dst_reg_1_51)
                          (= dst_reg_1_7 dst_reg_1_52)
                          (= dst_reg_1_8 dst_reg_1_53)
                          (= dst_reg_1_9 dst_reg_1_54))))))
(let ((a!4 (and (= cmp1.i248.i_1_107 #b0)
                (and (= cmp.i246.i_1_104 #b0) (or a!2 a!3))))
      (a!5 (or (and (= cmp1.i248.i_1_107 #b1)
                    (and (= cmp.i246.i_1_104 #b0) (or a!2 a!3)))
               (and (= cmp.i246.i_1_104 #b1) (or a!2 a!3))))
      (a!13 (and (= dst_reg_1_3 i36.i_1_92)
                 (= sub.i50.i_1_93
                    (bvsub i36.i_1_92 src_reg1.sroa.3.0.copyload_1_22))
                 (= add.i51.i_1_94 (bvadd sub.i50.i_1_93 i20.i_1_28))
                 (= sub3.i.i_1_95
                    (bvsub sub.i50.i_1_93 src_reg1.sroa.11.0.copyload_1_23))
                 (= xor.i52.i_1_96 (bvxor add.i51.i_1_94 sub3.i.i_1_95))
                 (= or.i53.i_1_97
                    (bvor i20.i_1_28 src_reg1.sroa.11.0.copyload_1_23))
                 (= or6.i.i_1_98 (bvor or.i53.i_1_97 xor.i52.i_1_96))
                 (= neg.i54.i_1_100 (bvxor or6.i.i_1_98 #xffffffffffffffff))
                 (= and.i55.i_1_101 (bvand sub.i50.i_1_93 neg.i54.i_1_100))
                 (= dst_reg_1_50 i.i245.i_1_102)
                 (ite (bvsgt i.i245.i_1_102 #xffffffffffffffff)
                      (= cmp.i246.i_1_104 #b1)
                      (= cmp.i246.i_1_104 #b0))
                 (=> a!3
                     (and (= src_reg_1_55 src_reg_1_82)
                          (= src_reg_1_56 src_reg_1_83)
                          (= src_reg_1_57 src_reg_1_84)
                          (= src_reg_1_58 src_reg_1_85)
                          (= src_reg_1_59 src_reg_1_86)
                          (= src_reg_1_60 src_reg_1_87)
                          (= src_reg_1_61 src_reg_1_88)
                          (= src_reg_1_62 src_reg_1_89)
                          (= src_reg_1_63 src_reg_1_90)
                          (= src_reg_1_64 src_reg_1_91)
                          (= dst_reg_1_45 dst_reg_1_72)
                          (= dst_reg_1_46 dst_reg_1_73)
                          (= dst_reg_1_47 dst_reg_1_74)
                          (= dst_reg_1_48 dst_reg_1_75)
                          (= dst_reg_1_49 dst_reg_1_76)
                          (= dst_reg_1_50 dst_reg_1_77)
                          (= dst_reg_1_51 dst_reg_1_78)
                          (= #x0000000000000000 dst_reg_1_79)
                          (= #xffffffffffffffff dst_reg_1_80)
                          (= dst_reg_1_54 dst_reg_1_81)))
                 (=> a!2
                     (and (= src_reg_1_55 src_reg_1_82)
                          (= src_reg_1_56 src_reg_1_83)
                          (= src_reg_1_57 src_reg_1_84)
                          (= src_reg_1_58 src_reg_1_85)
                          (= src_reg_1_59 src_reg_1_86)
                          (= src_reg_1_60 src_reg_1_87)
                          (= src_reg_1_61 src_reg_1_88)
                          (= src_reg_1_62 src_reg_1_89)
                          (= src_reg_1_63 src_reg_1_90)
                          (= src_reg_1_64 src_reg_1_91)
                          (= dst_reg_1_45 dst_reg_1_72)
                          (= dst_reg_1_46 dst_reg_1_73)
                          (= dst_reg_1_47 dst_reg_1_74)
                          (= dst_reg_1_48 dst_reg_1_75)
                          (= dst_reg_1_49 dst_reg_1_76)
                          (= dst_reg_1_50 dst_reg_1_77)
                          (= dst_reg_1_51 dst_reg_1_78)
                          (= sub70.i_1_69 dst_reg_1_79)
                          (= sub72.i_1_71 dst_reg_1_80)
                          (= dst_reg_1_54 dst_reg_1_81)))))
      (a!19 (=> (or (and (= retval.0.i49.i_1_42 #b0)
                         (= retval.0.i44.i_1_35 #b0))
                    a!1)
                a!18))
      (a!20 (=> (and (= cmp.i246.i_1_104 #b0) (or a!2 a!3))
                (and (= dst_reg_1_51 i24.i.i_1_105)
                     (ite (bvslt i24.i.i_1_105 #x0000000000000000)
                          (= cmp1.i248.i_1_107 #b1)
                          (= cmp1.i248.i_1_107 #b0)))))
      (a!22 (=> a!2
                (and (= sub70.i_1_69
                        (bvsub i34.i_1_65 src_reg1.sroa.24.0.copyload_1_27))
                     (= dst_reg_1_8 i35.i_1_70)
                     (= sub72.i_1_71
                        (bvsub i35.i_1_70 src_reg1.sroa.21.0.copyload_1_26))))))
(let ((a!6 (or (and (= cmp40.i.i_1_122 #b1) (and (= cmp21.i.i_1_117 #b0) a!4))
               (and (= cmp40.i.i_1_122 #b0) (and (= cmp21.i.i_1_117 #b0) a!4))
               (and (= cmp21.i.i_1_117 #b1) a!4)
               a!5))
      (a!7 (=> (and (= cmp40.i.i_1_122 #b0) (and (= cmp21.i.i_1_117 #b0) a!4))
               (and (= src_reg_1_82 src_reg_1_135)
                    (= src_reg_1_83 src_reg_1_136)
                    (= src_reg_1_84 src_reg_1_137)
                    (= src_reg_1_85 src_reg_1_138)
                    (= src_reg_1_86 src_reg_1_139)
                    (= src_reg_1_87 src_reg_1_140)
                    (= src_reg_1_88 src_reg_1_141)
                    (= src_reg_1_89 src_reg_1_142)
                    (= src_reg_1_90 src_reg_1_143)
                    (= src_reg_1_91 src_reg_1_144)
                    (= dst_reg_1_72 dst_reg_1_125)
                    (= dst_reg_1_73 dst_reg_1_126)
                    (= dst_reg_1_74 dst_reg_1_127)
                    (= and.i55.i_1_101 dst_reg_1_128)
                    (= or6.i.i_1_98 dst_reg_1_129)
                    (= dst_reg_1_77 dst_reg_1_130)
                    (= dst_reg_1_78 dst_reg_1_131)
                    (= dst_reg_1_79 dst_reg_1_132)
                    (= dst_reg_1_80 dst_reg_1_133)
                    (= dst_reg_1_81 dst_reg_1_134))))
      (a!8 (=> (and (= cmp40.i.i_1_122 #b1) (and (= cmp21.i.i_1_117 #b0) a!4))
               (and (= src_reg_1_82 src_reg_1_135)
                    (= src_reg_1_83 src_reg_1_136)
                    (= src_reg_1_84 src_reg_1_137)
                    (= src_reg_1_85 src_reg_1_138)
                    (= src_reg_1_86 src_reg_1_139)
                    (= src_reg_1_87 src_reg_1_140)
                    (= src_reg_1_88 src_reg_1_141)
                    (= src_reg_1_89 src_reg_1_142)
                    (= src_reg_1_90 src_reg_1_143)
                    (= src_reg_1_91 src_reg_1_144)
                    (= dst_reg_1_72 dst_reg_1_125)
                    (= dst_reg_1_73 dst_reg_1_126)
                    (= dst_reg_1_74 dst_reg_1_127)
                    (= and.i55.i_1_101 dst_reg_1_128)
                    (= or6.i.i_1_98 dst_reg_1_129)
                    (= cond53.i.i_1_124 dst_reg_1_130)
                    (= i28.i.i_1_115 dst_reg_1_131)
                    (= cond53.i.i_1_124 dst_reg_1_132)
                    (= dst_reg_1_80 dst_reg_1_133)
                    (= dst_reg_1_81 dst_reg_1_134))))
      (a!10 (=> a!4
                (and (= dst_reg_1_80 i28.i.i_1_115)
                     (ite (bvsgt i28.i.i_1_115 #xffffffffffffffff)
                          (= cmp21.i.i_1_117 #b1)
                          (= cmp21.i.i_1_117 #b0))
                     (= dst_reg_1_79 i29.i.i_1_118))))
      (a!14 (=> (and (= cmp21.i.i_1_117 #b0) a!4)
                (and (ite (bvslt i29.i.i_1_118 #x0000000000000000)
                          (= cmp40.i.i_1_122 #b1)
                          (= cmp40.i.i_1_122 #b0)))))
      (a!15 (=> (and (= cmp40.i.i_1_122 #b1) (and (= cmp21.i.i_1_117 #b0) a!4))
                (and (ite (bvugt i.i245.i_1_102 i29.i.i_1_118)
                          (= cmp48.i.i_1_123 #b1)
                          (= cmp48.i.i_1_123 #b0))
                     (ite (= cmp48.i.i_1_123 #b1)
                          (= cond53.i.i_1_124 i.i245.i_1_102)
                          (= cond53.i.i_1_124 i29.i.i_1_118)))))
      (a!21 (=> (and (= cmp21.i.i_1_117 #b1) a!4)
                (and (ite (bvult i24.i.i_1_105 i28.i.i_1_115)
                          (= cmp31.i.i_1_119 #b1)
                          (= cmp31.i.i_1_119 #b0))
                     (ite (= cmp31.i.i_1_119 #b1)
                          (= cond36.i.i_1_120 i24.i.i_1_105)
                          (= cond36.i.i_1_120 i28.i.i_1_115)))))
      (a!23 (=> a!5
                (and (= dst_reg_1_79 i25.i.i_1_108)
                     (ite (bvugt i.i245.i_1_102 i25.i.i_1_108)
                          (= cmp4.i.i_1_109 #b1)
                          (= cmp4.i.i_1_109 #b0))
                     (ite (= cmp4.i.i_1_109 #b1)
                          (= cond.i250.i_1_110 i.i245.i_1_102)
                          (= cond.i250.i_1_110 i25.i.i_1_108))
                     (= dst_reg_1_51 i26.i.i_1_111)
                     (= dst_reg_1_80 i27.i.i_1_112)
                     (ite (bvult i26.i.i_1_111 i27.i.i_1_112)
                          (= cmp12.i.i_1_113 #b1)
                          (= cmp12.i.i_1_113 #b0))
                     (ite (= cmp12.i.i_1_113 #b1)
                          (= cond17.i.i_1_114 i26.i.i_1_111)
                          (= cond17.i.i_1_114 i27.i.i_1_112))))))
(let ((a!9 (and (= dst_reg_1_132 i.i253.i_1_145)
                (= dst_reg_1_133 i5.i255.i_1_146)
                (= xor.i.i.i_1_147 (bvxor i5.i255.i_1_146 i.i253.i_1_145))
                (ite (= xor.i.i.i_1_147 #x0000000000000000)
                     (= cmp.i.i.i.i_1_149 #b1)
                     (= cmp.i.i.i.i_1_149 #b0))
                (=> a!5
                    (and (= src_reg_1_82 src_reg_1_135)
                         (= src_reg_1_83 src_reg_1_136)
                         (= src_reg_1_84 src_reg_1_137)
                         (= src_reg_1_85 src_reg_1_138)
                         (= src_reg_1_86 src_reg_1_139)
                         (= src_reg_1_87 src_reg_1_140)
                         (= src_reg_1_88 src_reg_1_141)
                         (= src_reg_1_89 src_reg_1_142)
                         (= src_reg_1_90 src_reg_1_143)
                         (= src_reg_1_91 src_reg_1_144)
                         (= dst_reg_1_72 dst_reg_1_125)
                         (= dst_reg_1_73 dst_reg_1_126)
                         (= dst_reg_1_74 dst_reg_1_127)
                         (= and.i55.i_1_101 dst_reg_1_128)
                         (= or6.i.i_1_98 dst_reg_1_129)
                         (= cond.i250.i_1_110 dst_reg_1_130)
                         (= cond17.i.i_1_114 dst_reg_1_131)
                         (= cond.i250.i_1_110 dst_reg_1_132)
                         (= cond17.i.i_1_114 dst_reg_1_133)
                         (= dst_reg_1_81 dst_reg_1_134)))
                (=> (and (= cmp21.i.i_1_117 #b1) a!4)
                    (and (= src_reg_1_82 src_reg_1_135)
                         (= src_reg_1_83 src_reg_1_136)
                         (= src_reg_1_84 src_reg_1_137)
                         (= src_reg_1_85 src_reg_1_138)
                         (= src_reg_1_86 src_reg_1_139)
                         (= src_reg_1_87 src_reg_1_140)
                         (= src_reg_1_88 src_reg_1_141)
                         (= src_reg_1_89 src_reg_1_142)
                         (= src_reg_1_90 src_reg_1_143)
                         (= src_reg_1_91 src_reg_1_144)
                         (= dst_reg_1_72 dst_reg_1_125)
                         (= dst_reg_1_73 dst_reg_1_126)
                         (= dst_reg_1_74 dst_reg_1_127)
                         (= and.i55.i_1_101 dst_reg_1_128)
                         (= or6.i.i_1_98 dst_reg_1_129)
                         (= i29.i.i_1_118 dst_reg_1_130)
                         (= cond36.i.i_1_120 dst_reg_1_131)
                         (= dst_reg_1_79 dst_reg_1_132)
                         (= cond36.i.i_1_120 dst_reg_1_133)
                         (= dst_reg_1_81 dst_reg_1_134)))
                a!7
                a!8))
      (a!11 (and (ite (bvugt retval.0.i.i.i.i_1_196 #x0000003f)
                      (= cmp.i.i.i_1_198 #b1)
                      (= cmp.i.i.i_1_198 #b0))
                 (= sh_prom.i.i.i_1_199
                    ((_ zero_extend 32) retval.0.i.i.i.i_1_196))
                 (= notmask.i.i.i_1_201
                    (bvshl #xffffffffffffffff sh_prom.i.i.i_1_199))
                 (= sub.i.i.i_1_203
                    (bvxor notmask.i.i.i_1_201 #xffffffffffffffff))
                 (= and.i.i256.i_1_204
                    (bvand notmask.i.i.i_1_201 i.i253.i_1_145))
                 (ite (= cmp.i.i.i_1_198 #b1)
                      (= retval.sroa.0.0.i.i.i_1_206 #x0000000000000000)
                      (= retval.sroa.0.0.i.i.i_1_206 and.i.i256.i_1_204))
                 (ite (= cmp.i.i.i_1_198 #b1)
                      (= retval.sroa.3.0.i.i.i_1_208 #xffffffffffffffff)
                      (= retval.sroa.3.0.i.i.i_1_208 sub.i.i.i_1_203))
                 (= or.i.i259.i_1_209
                    (bvor retval.sroa.0.0.i.i.i_1_206 and.i55.i_1_101))
                 (= and.i1.i260.i_1_210
                    (bvand retval.sroa.3.0.i.i.i_1_208 or6.i.i_1_98))
                 (= neg.i.i.i_1_212
                    (bvxor and.i1.i260.i_1_210 #xffffffffffffffff))
                 (= and4.i.i.i_1_213 (bvand or.i.i259.i_1_209 neg.i.i.i_1_212))
                 (=> (and (= cmp.i.i.i.i_1_149 #b0) a!6)
                     (= retval.0.i.i.i.i_1_196 phi.bo_1_195))
                 (=> (and (= cmp.i.i.i.i_1_149 #b1) a!6)
                     (= retval.0.i.i.i.i_1_196 #x00000000))
                 (= dst_reg_1_125 dst_reg_1_215)
                 (= dst_reg_1_126 dst_reg_1_216)
                 (= dst_reg_1_127 dst_reg_1_217)
                 (= and4.i.i.i_1_213 dst_reg_1_218)
                 (= and.i1.i260.i_1_210 dst_reg_1_219)
                 (= dst_reg_1_130 dst_reg_1_220)
                 (= dst_reg_1_131 dst_reg_1_221)
                 (= dst_reg_1_132 dst_reg_1_222)
                 (= dst_reg_1_133 dst_reg_1_223)
                 (= dst_reg_1_134 dst_reg_1_224)
                 (= src_reg_1_135 src_reg_1_225)
                 (= src_reg_1_136 src_reg_1_226)
                 (= src_reg_1_137 src_reg_1_227)
                 (= src_reg_1_138 src_reg_1_228)
                 (= src_reg_1_139 src_reg_1_229)
                 (= src_reg_1_140 src_reg_1_230)
                 (= src_reg_1_141 src_reg_1_231)
                 (= src_reg_1_142 src_reg_1_232)
                 (= src_reg_1_143 src_reg_1_233)
                 (= src_reg_1_144 src_reg_1_234)))
      (a!17 (=> (and (= cmp.i.i.i.i_1_149 #b0) a!6)
                (and (ite (bvult xor.i.i.i_1_147 #x0000000100000000)
                          (= tobool.not.i.i.i.i.i_1_151 #b1)
                          (= tobool.not.i.i.i.i.i_1_151 #b0))
                     (= shl.i.i.i.i.i_1_153
                        (bvshl xor.i.i.i_1_147 #x0000000000000020))
                     (ite (= tobool.not.i.i.i.i.i_1_151 #b1)
                          (= spec.select.i.i.i.i.i_1_154 shl.i.i.i.i.i_1_153)
                          (= spec.select.i.i.i.i.i_1_154 xor.i.i.i_1_147))
                     (ite (= tobool.not.i.i.i.i.i_1_151 #b1)
                          (= spec.select17.i.i.i.i.i_1_157 #x0000001f)
                          (= spec.select17.i.i.i.i.i_1_157 #x0000003f))
                     (ite (bvult spec.select.i.i.i.i.i_1_154 #x0001000000000000)
                          (= tobool2.not.i.i.i.i.i_1_159 #b1)
                          (= tobool2.not.i.i.i.i.i_1_159 #b0))
                     (= sub4.i.i.i.i.i_1_161
                        (bvadd spec.select17.i.i.i.i.i_1_157 #xfffffff0))
                     (= shl5.i.i.i.i.i_1_163
                        (bvshl spec.select.i.i.i.i.i_1_154 #x0000000000000010))
                     (ite (= tobool2.not.i.i.i.i.i_1_159 #b1)
                          (= word.addr.1.i.i.i.i.i_1_164 shl5.i.i.i.i.i_1_163)
                          (= word.addr.1.i.i.i.i.i_1_164
                             spec.select.i.i.i.i.i_1_154))
                     (ite (= tobool2.not.i.i.i.i.i_1_159 #b1)
                          (= num.1.i.i.i.i.i_1_165 sub4.i.i.i.i.i_1_161)
                          (= num.1.i.i.i.i.i_1_165
                             spec.select17.i.i.i.i.i_1_157))
                     (ite (bvult word.addr.1.i.i.i.i.i_1_164 #x0100000000000000)
                          (= tobool8.not.i.i.i.i.i_1_167 #b1)
                          (= tobool8.not.i.i.i.i.i_1_167 #b0))
                     (= sub10.i.i.i.i.i_1_169
                        (bvadd num.1.i.i.i.i.i_1_165 #xfffffff8))
                     (= shl11.i.i.i.i.i_1_171
                        (bvshl word.addr.1.i.i.i.i.i_1_164 #x0000000000000008))
                     (ite (= tobool8.not.i.i.i.i.i_1_167 #b1)
                          (= word.addr.2.i.i.i.i.i_1_172 shl11.i.i.i.i.i_1_171)
                          (= word.addr.2.i.i.i.i.i_1_172
                             word.addr.1.i.i.i.i.i_1_164))
                     (ite (= tobool8.not.i.i.i.i.i_1_167 #b1)
                          (= num.2.i.i.i.i.i_1_173 sub10.i.i.i.i.i_1_169)
                          (= num.2.i.i.i.i.i_1_173 num.1.i.i.i.i.i_1_165))
                     (ite (bvult word.addr.2.i.i.i.i.i_1_172 #x1000000000000000)
                          (= tobool14.not.i.i.i.i.i_1_175 #b1)
                          (= tobool14.not.i.i.i.i.i_1_175 #b0))
                     (= sub16.i.i.i.i.i_1_177
                        (bvadd num.2.i.i.i.i.i_1_173 #xfffffffc))
                     (= shl17.i.i.i.i.i_1_179
                        (bvshl word.addr.2.i.i.i.i.i_1_172 #x0000000000000004))
                     (ite (= tobool14.not.i.i.i.i.i_1_175 #b1)
                          (= word.addr.3.i.i.i.i.i_1_180 shl17.i.i.i.i.i_1_179)
                          (= word.addr.3.i.i.i.i.i_1_180
                             word.addr.2.i.i.i.i.i_1_172))
                     (ite (= tobool14.not.i.i.i.i.i_1_175 #b1)
                          (= num.3.i.i.i.i.i_1_181 sub16.i.i.i.i.i_1_177)
                          (= num.3.i.i.i.i.i_1_181 num.2.i.i.i.i.i_1_173))
                     (ite (bvult word.addr.3.i.i.i.i.i_1_180 #x4000000000000000)
                          (= tobool20.not.i.i.i.i.i_1_183 #b1)
                          (= tobool20.not.i.i.i.i.i_1_183 #b0))
                     (= sub22.i.i.i.i.i_1_185
                        (bvadd num.3.i.i.i.i.i_1_181 #x000000fe))
                     (= shl23.i.i.i.i.i_1_187
                        (bvshl word.addr.3.i.i.i.i.i_1_180 #x0000000000000002))
                     (ite (= tobool20.not.i.i.i.i.i_1_183 #b1)
                          (= word.addr.4.i.i.i.i.i_1_188 shl23.i.i.i.i.i_1_187)
                          (= word.addr.4.i.i.i.i.i_1_188
                             word.addr.3.i.i.i.i.i_1_180))
                     (ite (= tobool20.not.i.i.i.i.i_1_183 #b1)
                          (= num.4.i.i.i.i.i_1_189 sub22.i.i.i.i.i_1_185)
                          (= num.4.i.i.i.i.i_1_189 num.3.i.i.i.i.i_1_181))
                     (= word.addr.4.lobit.i.i.i.i.i.neg_1_191
                        (bvlshr word.addr.4.i.i.i.i.i_1_188 #x000000000000003f))
                     (= i.i.i.i.i.i.neg_1_192
                        ((_ extract 31 0) word.addr.4.lobit.i.i.i.i.i.neg_1_191))
                     (= conv.i.i.i.i_1_193
                        (bvadd num.4.i.i.i.i.i_1_189 i.i.i.i.i.i.neg_1_192))
                     (= phi.bo_1_195 (bvand conv.i.i.i.i_1_193 #x000000ff))))))
(let ((a!12 (=> (or (and (= cmp.i.i.i.i_1_149 #b0) a!6)
                    (and (= cmp.i.i.i.i_1_149 #b1) a!6))
                a!11)))
  (and (=> a!6 a!9)
       (= dst_reg_1_0 dst_reg_1_0)
       (= dst_reg_1_1 dst_reg_1_1)
       (= dst_reg_1_2 dst_reg_1_2)
       (= dst_reg_1_3 dst_reg_1_3)
       (= dst_reg_1_4 dst_reg_1_4)
       (= dst_reg_1_5 dst_reg_1_5)
       (= dst_reg_1_6 dst_reg_1_6)
       (= dst_reg_1_7 dst_reg_1_7)
       (= dst_reg_1_8 dst_reg_1_8)
       (= dst_reg_1_9 dst_reg_1_9)
       (= src_reg_1_10 src_reg_1_10)
       (= src_reg_1_11 src_reg_1_11)
       (= src_reg_1_12 src_reg_1_12)
       (= src_reg_1_13 src_reg_1_13)
       (= src_reg_1_14 src_reg_1_14)
       (= src_reg_1_15 src_reg_1_15)
       (= src_reg_1_16 src_reg_1_16)
       (= src_reg_1_17 src_reg_1_17)
       (= src_reg_1_18 src_reg_1_18)
       (= src_reg_1_19 src_reg_1_19)
       (= src_reg_1_13 src_reg1.sroa.3.0.copyload_1_22)
       (= src_reg_1_14 src_reg1.sroa.11.0.copyload_1_23)
       (= src_reg_1_15 src_reg1.sroa.15.0.copyload_1_24)
       (= src_reg_1_16 src_reg1.sroa.18.0.copyload_1_25)
       (= src_reg_1_17 src_reg1.sroa.21.0.copyload_1_26)
       (= src_reg_1_18 src_reg1.sroa.24.0.copyload_1_27)
       (= dst_reg_1_4 i20.i_1_28)
       (= dst_reg_1_5 i32.i_1_29)
       (= sub.i.i_1_30 (bvsub i32.i_1_29 src_reg1.sroa.18.0.copyload_1_25))
       (ite (bvslt src_reg1.sroa.18.0.copyload_1_25 #x0000000000000000)
            (= cmp.i41.i_1_32 #b1)
            (= cmp.i41.i_1_32 #b0))
       (ite (bvslt sub.i.i_1_30 i32.i_1_29)
            (= cmp1.i42.i_1_33 #b1)
            (= cmp1.i42.i_1_33 #b0))
       (ite (bvsgt sub.i.i_1_30 i32.i_1_29)
            (= cmp2.i43.i_1_34 #b1)
            (= cmp2.i43.i_1_34 #b0))
       (ite (= cmp.i41.i_1_32 #b1)
            (= retval.0.i44.i_1_35 cmp1.i42.i_1_33)
            (= retval.0.i44.i_1_35 cmp2.i43.i_1_34))
       a!10
       a!12
       (=> (or a!2 a!3) a!13)
       a!14
       a!15
       a!16
       a!17
       a!19
       a!20
       a!21
       a!22
       a!23))))))))

;{"dst_reg":["dst_reg_1_0",[""],"dst_reg_1_1","dst_reg_1_2",["dst_reg_1_3","dst_reg_1_4"],"dst_reg_1_5","dst_reg_1_6","dst_reg_1_7","dst_reg_1_8","dst_reg_1_9"],"src_reg":["src_reg_1_10",[""],"src_reg_1_11","src_reg_1_12",["src_reg_1_13","src_reg_1_14"],"src_reg_1_15","src_reg_1_16","src_reg_1_17","src_reg_1_18","src_reg_1_19"]}
;{"dst_reg":["dst_reg_1_215",[""],"dst_reg_1_216","dst_reg_1_217",["dst_reg_1_218","dst_reg_1_219"],"dst_reg_1_220","dst_reg_1_221","dst_reg_1_222","dst_reg_1_223","dst_reg_1_224"],"src_reg":["src_reg_1_225",[""],"src_reg_1_226","src_reg_1_227",["src_reg_1_228","src_reg_1_229"],"src_reg_1_230","src_reg_1_231","src_reg_1_232","src_reg_1_233","src_reg_1_234"]}
